80
1555
4
98
66
31
54
0 1
0 4
0 5
0 7
0 9
0 10
0 12
0 14
0 15
0 16
0 17
0 21
0 22
0 23
0 24
0 25
0 27
0 28
0 31
0 33
0 34
0 36
0 38
0 39
0 42
0 47
0 49
0 51
0 53
0 56
0 57
0 59
0 60
0 61
0 63
0 64
0 65
0 66
0 67
0 72
0 73
0 77
1 2
1 3
1 4
1 7
1 8
1 11
1 12
1 15
1 16
1 17
1 18
1 19
1 21
1 23
1 24
1 27
1 29
1 32
1 34
1 35
1 37
1 39
1 40
1 41
1 44
1 46
1 47
1 49
1 51
1 53
1 55
1 59
1 60
1 62
1 65
1 66
1 67
1 71
1 73
1 74
1 75
1 78
2 4
2 5
2 8
2 10
2 12
2 13
2 16
2 19
2 23
2 27
2 30
2 36
2 37
2 42
2 43
2 45
2 46
2 50
2 51
2 52
2 54
2 60
2 62
2 63
2 64
2 65
2 70
2 71
2 72
2 73
2 75
2 79
3 4
3 5
3 6
3 8
3 9
3 11
3 13
3 14
3 15
3 16
3 17
3 19
3 20
3 22
3 26
3 27
3 29
3 33
3 34
3 37
3 42
3 47
3 49
3 50
3 57
3 58
3 59
3 60
3 66
3 67
3 70
3 71
3 72
3 74
3 78
4 5
4 6
4 7
4 8
4 9
4 11
4 13
4 15
4 19
4 22
4 24
4 26
4 27
4 30
4 31
4 33
4 35
4 36
4 42
4 43
4 47
4 48
4 53
4 56
4 57
4 59
4 63
4 64
4 66
4 67
4 70
4 71
4 72
4 73
4 75
4 78
4 79
5 9
5 10
5 12
5 14
5 16
5 17
5 26
5 27
5 28
5 30
5 31
5 32
5 34
5 35
5 38
5 39
5 42
5 43
5 46
5 48
5 53
5 56
5 59
5 63
5 66
5 67
5 68
5 70
5 73
5 74
5 75
5 76
5 79
6 7
6 9
6 10
6 17
6 19
6 21
6 22
6 23
6 25
6 26
6 27
6 28
6 29
6 32
6 35
6 36
6 39
6 41
6 43
6 45
6 46
6 48
6 49
6 51
6 53
6 56
6 57
6 58
6 59
6 60
6 63
6 66
6 67
6 73
6 74
6 76
6 77
7 9
7 11
7 13
7 15
7 16
7 17
7 18
7 19
7 21
7 22
7 25
7 26
7 27
7 30
7 32
7 33
7 36
7 37
7 38
7 39
7 40
7 41
7 42
7 43
7 44
7 45
7 48
7 50
7 53
7 58
7 62
7 65
7 69
7 71
7 73
7 74
7 77
7 78
7 79
8 9
8 11
8 13
8 17
8 18
8 26
8 31
8 32
8 33
8 36
8 37
8 40
8 43
8 46
8 47
8 54
8 55
8 56
8 58
8 61
8 62
8 65
8 66
8 67
8 70
9 10
9 11
9 12
9 14
9 18
9 19
9 21
9 22
9 23
9 24
9 27
9 29
9 30
9 36
9 37
9 38
9 39
9 41
9 43
9 44
9 45
9 47
9 48
9 50
9 52
9 54
9 55
9 57
9 60
9 61
9 63
9 67
9 69
9 72
9 74
9 75
9 78
9 79
10 11
10 14
10 15
10 16
10 17
10 19
10 20
10 21
10 23
10 28
10 29
10 30
10 32
10 33
10 34
10 35
10 37
10 39
10 41
10 44
10 48
10 51
10 54
10 55
10 57
10 59
10 60
10 61
10 62
10 66
10 67
10 68
10 69
10 70
10 71
10 72
10 75
10 76
11 16
11 17
11 20
11 21
11 22
11 31
11 32
11 33
11 36
11 37
11 39
11 40
11 44
11 46
11 47
11 48
11 50
11 52
11 53
11 55
11 57
11 58
11 59
11 62
11 66
11 67
11 69
11 71
11 72
11 73
11 78
11 79
12 14
12 15
12 19
12 20
12 23
12 24
12 25
12 26
12 29
12 33
12 34
12 39
12 40
12 41
12 42
12 43
12 44
12 49
12 53
12 54
12 56
12 57
12 59
12 60
12 65
12 66
12 67
12 68
12 70
12 71
12 76
12 77
12 78
12 79
13 15
13 17
13 18
13 19
13 22
13 24
13 26
13 34
13 37
13 38
13 39
13 40
13 44
13 47
13 48
13 50
13 51
13 54
13 56
13 59
13 60
13 61
13 62
13 65
13 67
13 68
13 69
13 71
13 72
13 73
13 74
13 75
13 77
13 79
14 17
14 18
14 20
14 21
14 25
14 26
14 32
14 36
14 37
14 39
14 40
14 41
14 43
14 48
14 49
14 52
14 53
14 55
14 56
14 57
14 59
14 60
14 69
14 72
14 75
14 76
15 16
15 20
15 22
15 25
15 26
15 29
15 30
15 31
15 34
15 35
15 36
15 39
15 40
15 41
15 42
15 43
15 45
15 46
15 55
15 56
15 58
15 61
15 63
15 64
15 67
15 68
15 69
15 70
15 71
15 75
15 77
15 79
16 19
16 20
16 21
16 22
16 23
16 24
16 25
16 30
16 31
16 33
16 35
16 42
16 43
16 49
16 51
16 53
16 55
16 59
16 60
16 61
16 63
16 64
16 65
16 66
16 67
16 76
16 79
17 22
17 23
17 24
17 25
17 26
17 27
17 28
17 29
17 31
17 32
17 33
17 35
17 36
17 38
17 44
17 46
17 47
17 48
17 49
17 50
17 51
17 58
17 60
17 61
17 62
17 65
17 67
17 68
17 69
17 70
17 75
17 79
18 20
18 21
18 22
18 28
18 29
18 32
18 38
18 40
18 42
18 44
18 47
18 48
18 49
18 50
18 52
18 53
18 61
18 62
18 63
18 64
18 66
18 67
18 69
18 70
18 71
18 73
18 77
18 79
19 20
19 21
19 23
19 26
19 27
19 29
19 32
19 34
19 35
19 37
19 38
19 39
19 42
19 44
19 45
19 48
19 49
19 50
19 52
19 53
19 59
19 60
19 61
19 63
19 64
19 66
19 67
19 68
19 69
19 72
19 74
19 75
19 78
19 79
20 30
20 32
20 33
20 35
20 38
20 40
20 43
20 44
20 45
20 46
20 47
20 48
20 52
20 55
20 56
20 61
20 64
20 69
20 71
20 74
20 76
20 77
20 78
21 23
21 25
21 26
21 27
21 31
21 32
21 34
21 35
21 36
21 37
21 41
21 43
21 44
21 45
21 46
21 47
21 49
21 51
21 52
21 53
21 56
21 57
21 59
21 61
21 62
21 64
21 65
21 66
21 68
21 71
21 72
21 73
21 74
21 75
21 77
21 78
22 23
22 24
22 27
22 29
22 30
22 32
22 34
22 35
22 36
22 41
22 42
22 47
22 49
22 50
22 51
22 52
22 54
22 57
22 58
22 61
22 63
22 64
22 65
22 66
22 67
22 74
22 75
22 77
22 78
22 79
23 24
23 25
23 26
23 27
23 28
23 29
23 32
23 37
23 39
23 40
23 41
23 42
23 43
23 44
23 46
23 50
23 51
23 55
23 57
23 60
23 63
23 65
23 67
23 68
23 69
23 71
23 73
23 74
23 76
23 77
24 26
24 28
24 29
24 30
24 31
24 33
24 37
24 38
24 39
24 41
24 42
24 43
24 45
24 46
24 49
24 51
24 57
24 59
24 61
24 62
24 64
24 71
24 73
24 74
24 76
24 77
24 78
24 79
25 28
25 29
25 30
25 31
25 34
25 38
25 43
25 44
25 47
25 48
25 49
25 50
25 51
25 54
25 55
25 57
25 58
25 59
25 60
25 62
25 65
25 66
25 68
25 69
25 71
25 72
25 77
26 27
26 28
26 30
26 34
26 35
26 38
26 43
26 44
26 47
26 48
26 49
26 50
26 52
26 60
26 61
26 62
26 64
26 67
26 68
26 71
26 73
26 78
27 29
27 32
27 34
27 35
27 36
27 37
27 38
27 40
27 41
27 43
27 44
27 50
27 51
27 52
27 53
27 54
27 55
27 56
27 57
27 59
27 60
27 61
27 62
27 64
27 67
27 68
27 69
27 71
27 72
27 73
27 74
27 78
27 79
28 29
28 30
28 32
28 34
28 35
28 38
28 39
28 41
28 42
28 45
28 46
28 47
28 49
28 51
28 52
28 54
28 55
28 56
28 58
28 61
28 62
28 63
28 64
28 67
28 69
28 70
28 72
28 73
28 74
28 75
28 76
28 79
29 32
29 35
29 37
29 40
29 43
29 44
29 47
29 49
29 52
29 54
29 59
29 63
29 66
29 67
29 68
29 70
29 72
29 74
29 75
29 76
30 31
30 33
30 34
30 35
30 39
30 40
30 41
30 42
30 43
30 45
30 47
30 49
30 52
30 53
30 54
30 56
30 57
30 60
30 61
30 62
30 64
30 65
30 67
30 69
30 70
30 71
30 73
30 74
30 78
31 32
31 35
31 36
31 37
31 39
31 40
31 43
31 46
31 50
31 51
31 55
31 56
31 58
31 59
31 60
31 67
31 69
31 71
31 72
31 73
31 76
31 77
31 78
31 79
32 33
32 34
32 35
32 36
32 38
32 39
32 41
32 43
32 45
32 52
32 53
32 57
32 63
32 66
32 67
32 68
32 71
32 72
32 73
32 78
32 79
33 38
33 43
33 45
33 49
33 50
33 53
33 56
33 57
33 58
33 59
33 60
33 63
33 66
33 67
33 68
33 69
33 70
33 71
33 75
33 77
33 78
34 35
34 36
34 39
34 40
34 42
34 43
34 46
34 47
34 50
34 51
34 52
34 55
34 56
34 60
34 62
34 65
34 66
34 68
34 69
34 71
34 73
34 74
34 76
34 77
35 37
35 39
35 43
35 44
35 45
35 47
35 48
35 50
35 54
35 57
35 58
35 59
35 61
35 63
35 66
35 68
35 74
35 79
36 39
36 41
36 44
36 45
36 47
36 51
36 54
36 56
36 58
36 63
36 64
36 67
36 68
36 70
36 73
36 75
36 77
36 78
36 79
37 40
37 41
37 47
37 48
37 51
37 55
37 56
37 58
37 63
37 64
37 65
37 69
37 71
37 72
37 75
37 76
37 79
38 39
38 40
38 43
38 45
38 48
38 52
38 53
38 56
38 57
38 58
38 61
38 67
38 69
38 72
38 73
38 77
38 78
38 79
39 40
39 41
39 44
39 45
39 48
39 49
39 50
39 51
39 52
39 54
39 55
39 56
39 59
39 61
39 63
39 64
39 66
39 72
39 73
39 76
39 77
39 79
40 44
40 46
40 47
40 49
40 50
40 51
40 55
40 57
40 58
40 59
40 60
40 62
40 63
40 64
40 66
40 67
40 70
40 71
40 73
40 76
40 78
41 45
41 47
41 48
41 51
41 52
41 53
41 54
41 58
41 61
41 63
41 68
41 69
41 70
41 71
41 74
41 78
42 44
42 47
42 48
42 54
42 55
42 56
42 57
42 59
42 62
42 64
42 71
42 72
42 73
42 79
43 44
43 45
43 49
43 51
43 53
43 57
43 58
43 59
43 61
43 62
43 69
43 73
43 74
43 75
43 77
43 78
44 47
44 49
44 52
44 53
44 56
44 59
44 60
44 64
44 66
44 68
44 69
44 70
44 73
44 74
44 75
44 77
44 78
44 79
45 46
45 47
45 49
45 50
45 53
45 54
45 55
45 57
45 60
45 62
45 64
45 65
45 67
45 70
45 72
45 73
45 74
45 76
45 77
45 78
45 79
46 48
46 52
46 53
46 54
46 55
46 57
46 58
46 59
46 60
46 61
46 65
46 66
46 69
46 70
46 71
46 72
46 74
46 76
46 79
47 48
47 49
47 54
47 55
47 56
47 57
47 61
47 68
47 69
47 71
47 73
47 75
47 77
47 78
47 79
48 50
48 52
48 55
48 58
48 59
48 67
48 73
48 74
48 78
49 53
49 54
49 55
49 56
49 58
49 64
49 66
49 67
49 68
49 70
49 71
49 75
49 78
49 79
50 52
50 54
50 56
50 58
50 59
50 60
50 62
50 63
50 68
50 70
50 72
50 73
50 76
50 77
50 78
51 52
51 53
51 58
51 59
51 62
51 63
51 66
51 69
51 70
51 72
51 73
51 76
51 78
51 79
52 53
52 54
52 55
52 56
52 57
52 58
52 59
52 62
52 63
52 65
52 68
52 69
52 71
52 72
52 74
52 75
52 76
52 78
52 79
53 54
53 60
53 63
53 68
53 70
53 71
53 72
53 73
53 74
53 75
53 76
53 77
53 78
54 56
54 57
54 59
54 61
54 64
54 66
54 67
54 68
54 71
54 73
54 74
54 76
54 78
55 56
55 60
55 61
55 62
55 65
55 66
55 68
55 72
55 77
55 78
55 79
56 60
56 63
56 64
56 65
56 67
56 69
56 70
56 73
56 76
56 77
56 78
56 79
57 58
57 59
57 63
57 65
57 67
57 68
57 71
57 74
57 75
57 78
57 79
58 62
58 65
58 66
58 68
58 72
58 73
58 74
58 75
58 78
59 64
59 67
59 68
59 70
59 72
59 73
59 77
60 63
60 64
60 65
60 69
60 71
60 72
60 74
60 76
60 78
61 63
61 64
61 65
61 67
61 70
61 72
61 73
61 74
61 75
61 76
61 78
62 63
62 67
62 68
62 69
62 75
62 78
62 79
63 66
63 68
63 69
63 71
63 72
63 74
63 75
63 78
64 65
64 67
64 68
64 70
64 72
64 73
64 74
64 75
64 77
65 68
65 72
65 73
65 75
65 76
65 79
66 67
66 68
66 69
66 71
66 73
66 75
66 77
66 78
67 72
67 73
67 76
67 77
67 79
68 74
68 76
68 77
68 78
69 74
69 75
69 77
69 78
69 79
70 71
70 72
70 74
70 77
71 72
71 73
71 74
71 78
71 79
72 74
72 76
72 77
72 79
73 74
73 75
73 76
73 77
73 79
74 75
74 77
74 78
74 79
75 76
77 78
77 79
28 79 25 56 64 66 16 78 22 1 23 59 32 7 42 17 8 61 20 58
21 53 76 73 5 24 70 10 77 2 15 37 47 13 33 67 68 65 12 40
34 48 27 62 44 35 30 46 6 74 63 4 43 72 19 9 50 45 18 71
51 29 14 39 38 55 11 0 3 54 69 60 26 31 57 49 52 41 75 36
